c uprop, v00.0, 
c reading from data/prog729.c.cnf
c done reading: 0.003019
p cnf 134 618
-40 -65 0
-40 -60 0
40 60 65 0
-33 60 65 0
-33 -60 -65 0
33 60 -65 0
33 -60 65 0
40 -54 0
-52 -54 0
-40 52 54 0
-40 -47 52 0
40 -47 -52 0
40 47 52 0
-40 47 -52 0
-42 54 0
-38 -42 0
38 42 -54 0
-35 38 -54 0
-35 -38 54 0
35 38 54 0
35 -38 -54 0
-34 42 0
-31 -34 0
31 34 -42 0
31 -42 -62 0
-31 42 -62 0
31 42 62 0
-31 -42 62 0
34 -67 0
-57 -67 0
-34 57 67 0
-34 57 -68 0
34 -57 -68 0
34 57 68 0
-34 -57 68 0
67 -70 0
-49 -70 0
49 -67 70 0
49 -67 -71 0
-49 67 -71 0
49 67 71 0
-49 -67 71 0
70 -72 0
-45 -72 0
45 -70 72 0
45 -70 -73 0
-45 70 -73 0
45 70 73 0
-45 -70 73 0
60 -74 0
65 -74 0
-60 -65 74 0
-60 -65 -75 0
60 65 -75 0
-60 65 75 0
60 -65 75 0
-52 -60 76 0
-52 -74 76 0
-60 -74 76 0
52 60 -76 0
52 74 -76 0
60 74 -76 0
52 -76 -77 0
60 -76 -77 0
74 -76 -77 0
-52 76 77 0
-60 76 77 0
-74 76 77 0
-52 -60 -74 77 0
52 60 74 -77 0
-38 -52 78 0
-38 -76 78 0
-52 -76 78 0
38 52 -78 0
38 76 -78 0
52 76 -78 0
38 -78 -79 0
52 -78 -79 0
76 -78 -79 0
-38 78 79 0
-52 78 79 0
-76 78 79 0
-38 -52 -76 79 0
38 52 76 -79 0
-31 -38 80 0
-31 -78 80 0
-38 -78 80 0
31 38 -80 0
31 78 -80 0
38 78 -80 0
-29 31 -80 0
-29 38 -80 0
-29 78 -80 0
29 -31 80 0
29 -38 80 0
29 -78 80 0
29 -31 -38 -78 0
-29 31 38 78 0
28 -31 -57 0
28 -57 -80 0
28 -31 -80 0
-28 31 57 0
-28 57 80 0
-28 31 80 0
-27 -28 57 0
-27 -28 31 0
-27 -28 80 0
27 28 -57 0
27 28 -31 0
27 28 -80 0
27 -31 -57 -80 0
-27 31 57 80 0
26 -49 -57 0
26 -28 -49 0
26 -28 -57 0
-26 49 57 0
-26 28 49 0
-26 28 57 0
-25 -26 49 0
-25 -26 57 0
-25 -26 28 0
25 26 -49 0
25 26 -57 0
25 26 -28 0
25 -28 -49 -57 0
-25 28 49 57 0
24 -45 -49 0
24 -26 -45 0
24 -26 -49 0
-24 45 49 0
-24 26 45 0
-24 26 49 0
-24 45 -64 0
-24 49 -64 0
-24 26 -64 0
24 -45 64 0
24 -49 64 0
24 -26 64 0
-26 -45 -49 64 0
26 45 49 -64 0
45 -59 0
24 -59 0
-24 -45 59 0
-24 -45 -51 0
24 45 -51 0
24 -45 51 0
-24 45 51 0
-37 77 0
-37 65 0
37 -65 -77 0
-30 -65 -77 0
-30 65 77 0
30 65 -77 0
30 -65 77 0
56 -60 -79 0
-37 56 -79 0
-37 56 -60 0
-56 60 79 0
37 -56 79 0
37 -56 60 0
-48 -56 79 0
-48 -56 60 0
37 -48 -56 0
48 56 -79 0
48 56 -60 0
-37 48 56 0
-37 48 -60 -79 0
37 -48 60 79 0
-29 44 -52 0
-29 44 -56 0
44 -52 -56 0
29 -44 52 0
29 -44 56 0
-44 52 56 0
-23 29 -44 0
-23 -44 52 0
-23 -44 56 0
23 -29 44 0
23 44 -52 0
23 44 -56 0
23 -29 -52 -56 0
-23 29 52 56 0
22 -27 -38 0
22 -27 -44 0
22 -38 -44 0
-22 27 38 0
-22 27 44 0
-22 38 44 0
-21 -22 27 0
-21 -22 38 0
-21 -22 44 0
21 22 -27 0
21 22 -38 0
21 22 -44 0
21 -27 -38 -44 0
-21 27 38 44 0
20 -25 -31 0
20 -22 -25 0
20 -22 -31 0
-20 25 31 0
-20 22 25 0
-20 22 31 0
-19 -20 25 0
-19 -20 31 0
-19 -20 22 0
19 20 -25 0
19 20 -31 0
19 20 -22 0
19 -22 -25 -31 0
-19 22 25 31 0
18 -57 -64 0
18 -20 -64 0
18 -20 -57 0
-18 57 64 0
-18 20 64 0
-18 20 57 0
-17 -18 64 0
-17 -18 57 0
-17 -18 20 0
17 18 -64 0
17 18 -57 0
17 18 -20 0
17 -20 -57 -64 0
-17 20 57 64 0
16 -49 -51 0
16 -18 -51 0
16 -18 -49 0
-16 49 51 0
-16 18 51 0
-16 18 49 0
-15 -16 51 0
-15 -16 49 0
-15 -16 18 0
15 16 -51 0
15 16 -49 0
15 16 -18 0
15 -18 -49 -51 0
-15 18 49 51 0
14 -45 -59 0
14 -16 -59 0
14 -16 -45 0
-14 45 59 0
-14 16 59 0
-14 16 45 0
-13 -14 59 0
-13 -14 45 0
-13 -14 16 0
13 14 -59 0
13 14 -45 0
13 14 -16 0
13 -16 -45 -59 0
-13 16 45 59 0
-12 -65 0
-12 -75 0
12 65 75 0
-11 65 75 0
-11 -65 -75 0
11 -65 75 0
11 65 -75 0
-10 12 0
-10 -30 0
10 -12 30 0
-9 -12 30 0
-9 12 -30 0
9 12 30 0
9 -12 -30 0
-8 10 0
-8 -48 0
8 -10 48 0
-10 48 -81 0
10 -48 -81 0
10 48 81 0
-10 -48 81 0
8 -82 0
-23 -82 0
-8 23 82 0
-8 23 -83 0
8 -23 -83 0
8 23 83 0
-8 -23 83 0
82 -84 0
-21 -84 0
21 -82 84 0
21 -82 -85 0
-21 82 -85 0
21 82 85 0
-21 -82 85 0
84 -86 0
-19 -86 0
19 -84 86 0
19 -84 -87 0
-19 84 -87 0
19 84 87 0
-19 -84 87 0
86 -88 0
-17 -88 0
17 -86 88 0
17 -86 -89 0
-17 86 -89 0
17 86 89 0
-17 -86 89 0
88 -90 0
-15 -90 0
15 -88 90 0
15 -88 -91 0
-15 88 -91 0
15 88 91 0
-15 -88 91 0
90 -92 0
-13 -92 0
13 -90 92 0
13 -90 -93 0
-13 90 -93 0
13 90 93 0
-13 -90 93 0
92 -94 0
-14 -94 0
14 -92 94 0
14 -92 -95 0
-14 92 -95 0
14 92 95 0
-14 -92 95 0
-96 -98 0
96 98 0
-99 -101 0
99 101 0
-102 -104 0
102 104 0
-105 -107 0
105 107 0
-108 -110 0
108 110 0
-111 -113 0
111 113 0
96 -114 0
-96 114 0
-96 -99 115 0
-99 115 0
-96 115 0
96 99 -115 0
99 -115 -116 0
96 -115 -116 0
-99 115 116 0
-96 115 116 0
115 116 0
-96 -99 116 0
-99 -102 117 0
-102 -115 117 0
-99 -115 117 0
99 102 -117 0
102 115 -117 0
99 115 -117 0
102 -117 -118 0
99 -117 -118 0
115 -117 -118 0
-102 117 118 0
-99 117 118 0
-115 117 118 0
-99 -102 -115 118 0
99 102 115 -118 0
-102 -105 119 0
-105 -117 119 0
-102 -117 119 0
102 105 -119 0
105 117 -119 0
102 117 -119 0
105 -119 -120 0
102 -119 -120 0
117 -119 -120 0
-105 119 120 0
-102 119 120 0
-117 119 120 0
-102 -105 -117 120 0
102 105 117 -120 0
-105 -108 121 0
-108 -119 121 0
-105 -119 121 0
105 108 -121 0
108 119 -121 0
105 119 -121 0
108 -121 -122 0
105 -121 -122 0
119 -121 -122 0
-108 121 122 0
-105 121 122 0
-119 121 122 0
-105 -108 -119 122 0
105 108 119 -122 0
-108 -111 123 0
-111 -121 123 0
-108 -121 123 0
108 111 -123 0
111 121 -123 0
108 121 -123 0
111 -123 -124 0
108 -123 -124 0
121 -123 -124 0
-111 123 124 0
-108 123 124 0
-121 123 124 0
-108 -111 -121 124 0
108 111 121 -124 0
111 -125 0
123 -125 0
-111 -123 125 0
-66 -111 -123 0
-66 111 123 0
66 -111 123 0
66 111 -123 0
-61 114 0
61 -114 0
-53 -114 0
53 114 0
39 -116 0
39 -61 -116 0
39 -61 0
-39 61 116 0
-32 -39 116 0
-32 -39 61 0
32 39 -116 0
32 39 0
32 39 -61 0
32 -61 -116 0
58 -96 -118 0
-39 58 -118 0
-39 58 -96 0
-58 96 118 0
39 -58 118 0
39 -58 96 0
-50 -58 118 0
-50 -58 96 0
39 -50 -58 0
50 58 -118 0
50 58 -96 0
-39 50 58 0
-39 50 -96 -118 0
39 -50 96 118 0
46 -99 -120 0
46 -58 -120 0
46 -58 -99 0
-46 99 120 0
-46 58 120 0
-46 58 99 0
-46 120 -126 0
-46 99 -126 0
-46 58 -126 0
46 -120 126 0
46 -99 126 0
46 -58 126 0
-58 -99 -120 126 0
58 99 120 -126 0
-102 -122 127 0
-46 -122 127 0
-46 -102 127 0
102 122 -127 0
46 122 -127 0
46 102 -127 0
-97 122 -127 0
-97 102 -127 0
46 -97 -127 0
97 -122 127 0
97 -102 127 0
-46 97 127 0
-46 97 -102 -122 0
46 -97 102 122 0
100 -105 -124 0
100 -124 -127 0
100 -105 -127 0
-100 105 124 0
-100 124 127 0
-100 105 127 0
-100 -103 124 0
-100 -103 105 0
-100 -103 127 0
100 103 -124 0
100 103 -105 0
100 103 -127 0
103 -105 -124 -127 0
-103 105 124 127 0
-66 106 -108 0
-66 -100 106 0
-100 106 -108 0
66 -106 108 0
66 100 -106 0
100 -106 108 0
66 -106 -109 0
-106 108 -109 0
100 -106 -109 0
-66 106 109 0
106 -108 109 0
-100 106 109 0
-66 -100 -108 109 0
66 100 108 -109 0
-111 112 -125 0
-106 112 -125 0
-106 -111 112 0
111 -112 125 0
106 -112 125 0
106 111 -112 0
-112 125 -128 0
111 -112 -128 0
106 -112 -128 0
112 -125 128 0
-111 112 128 0
-106 112 128 0
-106 -111 -125 128 0
106 111 125 -128 0
-53 -129 0
53 129 0
-32 -130 0
32 130 0
-50 -131 0
50 131 0
-126 -132 0
126 132 0
-97 -133 0
97 133 0
-103 -134 0
103 134 0
-41 -109 0
41 109 0
-55 -128 0
55 128 0
-43 -112 0
43 112 0
-36 65 0
-36 53 0
36 -53 -65 0
-53 -65 0
53 65 0
-32 63 -75 0
-36 63 -75 0
-32 -36 63 0
32 -63 75 0
36 -63 75 0
32 36 -63 0
-63 75 0
32 -63 0
36 -63 0
32 36 75 0
-30 -50 69 0
-30 -63 69 0
-50 -63 69 0
30 50 -69 0
30 63 -69 0
50 63 -69 0
-30 69 0
-50 69 0
-63 69 0
-30 -50 -63 0
7 -48 -126 0
7 -48 -69 0
7 -69 -126 0
-7 48 126 0
-7 48 69 0
-7 69 126 0
-7 48 0
-7 126 0
-7 69 0
48 69 126 0
6 -23 -97 0
6 -7 -23 0
6 -7 -97 0
-6 23 97 0
-6 7 23 0
-6 7 97 0
-6 23 0
-6 97 0
-6 7 0
7 23 97 0
5 -21 -103 0
5 -6 -21 0
5 -6 -103 0
-5 21 103 0
-5 6 21 0
-5 6 103 0
5 -21 0
5 -103 0
5 -6 0
-6 -21 -103 0
4 -19 -109 0
4 -5 -19 0
4 -5 -109 0
-4 19 109 0
-4 5 19 0
-4 5 109 0
4 -19 0
4 -109 0
4 -5 0
-5 -19 -109 0
3 -17 -128 0
3 -4 -17 0
3 -4 -128 0
-3 17 128 0
-3 4 17 0
-3 4 128 0
3 -17 0
3 -128 0
3 -4 0
-4 -17 -128 0
2 -15 -112 0
2 -3 -15 0
2 -3 -112 0
-2 15 112 0
-2 3 15 0
-2 3 112 0
2 -15 0
2 -112 0
2 -3 0
-3 -15 -112 0
-1 13 0
-1 2 0
1 -2 -13 0
2 -13 0
-2 13 0
-1 -14 0
1 -14 0
-1 14 0
